(set-logic QF_S)
(declare-fun var0 () String)
(declare-fun var1 () String)
(declare-fun var2 () String)
(declare-fun var3 () String)
(declare-fun var4 () Int)
(declare-fun var5 () Int)
(declare-fun var6 () Int)
(assert (not (str.contains var0 var1)))
(assert (str.prefixof (str.replace "R?VNRPt" var2 var3) (str.at "b^Y4\\'^" 15)))
(assert (>= (str.indexof var1 var1 var4) (str.len var1)))
(assert (<= (str.indexof (str.substr var0 var5 var6) (str.replace var2 var2 "$/1zfa~$") (str.len var3)) (str.len var0)))
(check-sat)